p cnf 143 343
1 0
7 -8 0
-7 8 0
9 -10 0
-9 10 0
6 -7 0
6 -9 0
-6 7 9 0
11 -12 0
-11 12 0
5 -6 0
5 -11 0
-5 6 11 0
-14 6 0
14 -6 0
15 12 0
-15 -12 0
13 -14 0
13 -15 0
-13 14 15 0
-4 5 0
-4 13 0
4 -5 -13 0
18 -8 0
-18 8 0
19 10 0
-19 -10 0
17 -18 0
17 -19 0
-17 18 19 0
20 -12 0
-20 12 0
16 -17 0
16 -20 0
-16 17 20 0
-3 4 0
-3 16 0
3 -4 -16 0
-23 3 0
23 -3 0
33 -8 0
-33 8 0
34 10 0
-34 -10 0
-32 33 0
-32 34 0
32 -33 -34 0
35 12 0
-35 -12 0
-31 32 0
-31 35 0
31 -32 -35 0
38 39 0
-38 -39 0
40 41 0
-40 -41 0
-37 38 0
-37 40 0
37 -38 -40 0
42 43 0
-42 -43 0
-36 37 0
-36 42 0
36 -37 -42 0
-30 31 0
-30 36 0
30 -31 -36 0
47 8 0
-47 -8 0
48 10 0
-48 -10 0
-46 47 0
-46 48 0
46 -47 -48 0
49 12 0
-49 -12 0
-45 46 0
-45 49 0
45 -46 -49 0
52 39 0
-52 -39 0
53 -41 0
-53 41 0
-51 52 0
-51 53 0
51 -52 -53 0
54 -43 0
-54 43 0
-50 51 0
-50 54 0
50 -51 -54 0
-44 45 0
-44 50 0
44 -45 -50 0
29 -30 0
29 -44 0
-29 30 44 0
58 8 0
-58 -8 0
59 -10 0
-59 10 0
-57 58 0
-57 59 0
57 -58 -59 0
60 -12 0
-60 12 0
-56 57 0
-56 60 0
56 -57 -60 0
63 -39 0
-63 39 0
64 41 0
-64 -41 0
-62 63 0
-62 64 0
62 -63 -64 0
65 43 0
-65 -43 0
-61 62 0
-61 65 0
61 -62 -65 0
-55 56 0
-55 61 0
55 -56 -61 0
28 -29 0
28 -55 0
-28 29 55 0
-68 57 0
68 -57 0
69 12 0
-69 -12 0
-67 68 0
-67 69 0
67 -68 -69 0
-71 51 0
71 -51 0
72 43 0
-72 -43 0
-70 71 0
-70 72 0
70 -71 -72 0
-66 67 0
-66 70 0
66 -67 -70 0
27 -28 0
27 -66 0
-27 28 66 0
-74 45 0
74 -45 0
-75 70 0
75 -70 0
-73 74 0
-73 75 0
73 -74 -75 0
26 -27 0
26 -73 0
-26 27 73 0
-78 46 0
78 -46 0
79 -12 0
-79 12 0
-77 78 0
-77 79 0
77 -78 -79 0
-81 37 0
81 -37 0
82 -43 0
-82 43 0
-80 81 0
-80 82 0
80 -81 -82 0
-76 77 0
-76 80 0
76 -77 -80 0
25 -26 0
25 -76 0
-25 26 76 0
-84 45 0
84 -45 0
-85 80 0
85 -80 0
-83 84 0
-83 85 0
83 -84 -85 0
24 -25 0
24 -83 0
-24 25 83 0
-22 23 0
-22 24 0
22 -23 -24 0
-87 3 0
87 -3 0
-95 31 0
95 -31 0
-96 45 0
96 -45 0
-94 95 0
-94 96 0
94 -95 -96 0
-98 45 0
98 -45 0
-99 56 0
99 -56 0
-97 98 0
-97 99 0
97 -98 -99 0
93 -94 0
93 -97 0
-93 94 97 0
-101 56 0
101 -56 0
-102 31 0
102 -31 0
-100 101 0
-100 102 0
100 -101 -102 0
92 -93 0
92 -100 0
-92 93 100 0
-104 67 0
104 -67 0
-105 67 0
105 -67 0
-103 104 0
-103 105 0
103 -104 -105 0
91 -92 0
91 -103 0
-91 92 103 0
-107 45 0
107 -45 0
-108 67 0
108 -67 0
-106 107 0
-106 108 0
106 -107 -108 0
90 -91 0
90 -106 0
-90 91 106 0
-110 77 0
110 -77 0
-111 77 0
111 -77 0
-109 110 0
-109 111 0
109 -110 -111 0
89 -90 0
89 -109 0
-89 90 109 0
-113 45 0
113 -45 0
-114 77 0
114 -77 0
-112 113 0
-112 114 0
112 -113 -114 0
88 -89 0
88 -112 0
-88 89 112 0
-86 87 0
-86 88 0
86 -87 -88 0
21 -22 0
21 -86 0
-21 22 86 0
2 -3 0
2 -21 0
-2 3 21 0
-123 61 0
123 -61 0
-124 45 0
124 -45 0
-122 123 0
-122 124 0
122 -123 -124 0
-126 36 0
126 -36 0
-127 56 0
127 -56 0
-125 126 0
-125 127 0
125 -126 -127 0
121 -122 0
121 -125 0
-121 122 125 0
-129 50 0
129 -50 0
-130 31 0
130 -31 0
-128 129 0
-128 130 0
128 -129 -130 0
120 -121 0
120 -128 0
-120 121 128 0
-132 70 0
132 -70 0
-133 67 0
133 -67 0
-131 132 0
-131 133 0
131 -132 -133 0
119 -120 0
119 -131 0
-119 120 131 0
-135 36 0
135 -36 0
-136 67 0
136 -67 0
-134 135 0
-134 136 0
134 -135 -136 0
118 -119 0
118 -134 0
-118 119 134 0
-138 80 0
138 -80 0
-139 77 0
139 -77 0
-137 138 0
-137 139 0
137 -138 -139 0
117 -118 0
117 -137 0
-117 118 137 0
-141 36 0
141 -36 0
-142 77 0
142 -77 0
-140 141 0
-140 142 0
140 -141 -142 0
116 -117 0
116 -140 0
-116 117 140 0
-143 36 0
143 -36 0
-115 116 0
-115 143 0
115 -116 -143 0
-1 2 0
-1 115 0
1 -2 -115 0
